
Route #1: 28 55 59 26 50 17 58 33 31 
Route #2: 15 47 24 42 54 21 41 22 13 
Route #3: 6 57 32 40 29 43 61 
Route #4: 1 3 27 39 23 45 18 60 14 53 
Route #5: 7 56 48 20 51 30 38 52 34 
Route #6: 10 8 35 49 25 46 44 
Route #7: 36 37 16 2 19 
Route #8: 5 11 4 9 12 
cost 1868.76
total time is 6.9